Traveling Salesman Problem/TSP_generados/Aleatorio1621103348_11.tsp
NAME: Aleatorio1621103348_11.tsp
COMMENT: Randomly generated scenario
TYPE: TSP
DIMENSION: 11
EDGE_WEIGHT_TYPE: ATT
NODE_COORD_SECTION
1 14.82 11.15
2 46.61 18.56
3 45.29 22.6
4 20.45 31.79
5 17.82 42.86
6 22.32 39.58
7 45.6 33.72
8 10.28 27.58
9 39.49 36.3
10 46.59 23.31
11 17.24 0.06
