Traveling Salesman Problem/TSP_generados/Aleatorio1621103348_11.opt.tour
NAME: Aleatorio1621103348_11.opt.tour
COMMENT: Optimal solution for Aleatorio1621103348_11 (131.36245181882043)
TYPE: TOUR
DIMENSION: 11
TOUR_SECTION
1 8 4 5 6 9 7 10 3 2 11
-1
EOF
